0.1 4.1 162.4 66.5 377.7 77.5
0.2 6.4 194.5 140.8 509.1 152.3
0.5 17.5 235.8 356.9 649.3 366.9
1.0 47 261.1 758.8 672.2 771
2.0 148.7 513.7 1394.8 803.7 1407.4
5.0 856.8 1432 3182.2 2284 3191.1
10.0 2357.2 3062.4 6257.2 3896.3 6275.3
20.0 5161 5661.7 12354.3 6255.4 12357.3
50.0 12110.2 12585.4 28557.4 13151.5 28561
100.0 17344.7 17544.9 46828.8 18452.2 46840.8